n_res = 4;
rc = [ 33, 33, 32, 37 ];
n_tasks = 30;
d = [ 5, 2, 6, 10, 7, 10, 9, 3, 8, 10, 1, 6, 6, 9, 9, 4, 4, 4, 3, 9, 4, 3, 6, 9, 3, 8, 6, 10, 8, 10 ];
rr = [| 10, 9, 5, 5, 9, 7, 4, 6, 8, 4, 9, 10, 1, 4, 10, 7, 5, 2, 6, 10, 3, 2, 5, 5, 9, 5, 4, 8, 1, 5
      | 5, 3, 9, 7, 4, 2, 5, 3, 10, 6, 5, 3, 2, 5, 7, 4, 4, 7, 10, 8, 3, 5, 4, 7, 1, 3, 10, 7, 5, 2
      | 8, 8, 4, 6, 2, 10, 2, 6, 10, 4, 4, 10, 1, 4, 9, 10, 6, 3, 3, 9, 5, 4, 9, 8, 4, 7, 2, 9, 7, 8
      | 5, 7, 1, 4, 10, 6, 6, 6, 9, 8, 4, 9, 6, 9, 8, 3, 4, 2, 10, 9, 2, 3, 7, 5, 2, 5, 8, 3, 8, 1 |];
suc = [ { 2 }, 
        { 1 }, 
        { 4 }, 
        { 3 }, 
        { 6 }, 
        { 5 }, 
        { 8 }, 
        { 7 }, 
        { 10 }, 
        { 9 }, 
        { 12 }, 
        { 11 }, 
        { 14 }, 
        { 13 }, 
        { 16 }, 
        { 15 }, 
        { 18 }, 
        { 17 }, 
        { 20 }, 
        { 19 }, 
        { 22 }, 
        { 21 }, 
        { 24 }, 
        { 23 }, 
        { 26 }, 
        { 25 }, 
        { 28 }, 
        { 27 }, 
        { 30 }, 
        { 29 }]; 
